COMUNI = {
	corciano,
	perugia,
	orvieto,
	foligno,
	amelia,
	umbertide,
	bastia_umbra,
	gualdo_tardino,
	terni,
	todi,
	castiglione_del_lago,
	assisi,
	marsciano,
	citta_di_castello,
	spoleto,
	narni,
	gubbio,
	san_giustino,
	magione,
};

NUMERO_COMUNI = 19;

ABITANTI_PER_COMUNE = [21, 161, 19, 55, 11, 16, 21, 14, 106, 15, 15, 27, 18, 38, 36, 17, 30, 11, 14];

STRADE_TRA_COMUNI = [|
	false, true, false, false, false, false, false, false, false, false, false, false, false, false, false, false, false, false, true |
	true, false, false, false, false, true, true, false, false, false, false, false, true, false, false, false, false, false, false |
	false, false, false, false, false, false, false, false, false, true, false, false, false, false, false, false, false, false, false |
	false, false, false, false, false, false, false, false, false, false, false, true, false, false, false, false, false, false, false |
	false, false, false, false, false, false, false, false, false, true, false, false, false, false, false, true, false, false, false |
	false, true, false, false, false, false, false, false, false, false, false, false, false, true, false, false, true, false, false |
	false, true, false, false, false, false, false, false, false, false, false, true, false, false, false, false, false, false, false |
	false, false, false, false, false, false, false, false, false, false, false, false, false, false, false, false, true, false, false |
	false, false, false, false, false, false, false, false, false, false, false, false, false, false, true, true, false, false, false |
	false, false, true, false, true, false, false, false, false, false, false, false, true, false, false, false, false, false, false |
	false, false, false, false, false, false, false, false, false, false, false, false, false, false, false, false, false, false, true |
	false, false, false, true, false, false, true, false, false, false, false, false, false, false, false, false, false, false, false |
	false, true, false, false, false, false, false, false, false, true, false, false, false, false, false, false, false, false, false |
	false, false, false, false, false, true, false, false, false, false, false, false, false, false, false, false, false, true, false |
	false, false, false, false, false, false, false, false, true, false, false, false, false, false, false, false, false, false, false |
	false, false, false, false, true, false, false, false, true, false, false, false, false, false, false, false, false, false, false |
	false, false, false, false, false, true, false, true, false, false, false, false, false, false, false, false, false, false, false |
	false, false, false, false, false, false, false, false, false, false, false, false, false, true, false, false, false, false, false |
	true, false, false, false, false, false, false, false, false, false, true, false, false, false, false, false, false, false, false |
|];

RICHIESTE = [|
	13, 8, 17, 2, 26 |
	4, 3, 0, 4, 2 |
	1, 1, 1, 2, 14 |
	1, 12, 6, 31, 11 |
	5, 17, 11, 7, 5 |
	0, 5, 16, 9, 11 |
	3, 29, 9, 16, 6 |
	6, 3, 1, 12, 3 |
	14, 18, 16, 2, 27 |
	5, 1, 18, 2, 2 |
	3, 7, 20, 38, 15 |
	24, 15, 6, 14, 7 |
	39, 1, 0, 3, 2 |
	8, 5, 7, 2, 7 |
	18, 15, 22, 17, 44 |
	12, 12, 3, 21, 0 |
	2, 11, 21, 7, 0 |
	24, 7, 13, 7, 2 |
	2, 8, 6, 17, 2 |
|];
